# LAMMPS coeff file via write_coeff, version 7 Aug 2019
# pair_style lj/charmmfsw/coul/charmmfsh
pair_coeff 1 1 5.29 2.62904 5.29 2.62904
pair_coeff 1 2 5.29 2.62904 5.29 2.62904
pair_coeff 1 3 0.498097 2.52753 0.498097 2.52753
pair_coeff 1 4 0.890786 3.26092 0.890786 3.26092
pair_coeff 1 5 0.897 2.87808 0.897 2.87808
pair_coeff 1 6 0.493295 1.02548 0.493295 1.02548
pair_coeff 2 2 5.29 2.62904 5.29 2.62904
pair_coeff 2 3 0.498097 2.52753 0.498097 2.52753
pair_coeff 2 4 0.890786 3.26092 0.890786 3.26092
pair_coeff 2 5 0.897 2.87808 0.897 2.87808
pair_coeff 2 6 0.493295 1.02548 0.493295 1.02548
pair_coeff 3 3 0.0469 2.42993 0.0469 2.42993
pair_coeff 3 4 0.0838749 3.13501 0.0838749 3.13501
pair_coeff 3 5 0.08446 2.76694 0.08446 2.76694
pair_coeff 3 6 0.0464478 0.985886 0.0464478 0.985886
pair_coeff 4 4 0.15 4.04468 0.15 4.04468
pair_coeff 4 5 0.151046 3.56981 0.151046 3.56981
pair_coeff 4 6 0.0830662 1.27196 0.0830662 1.27196
pair_coeff 5 5 0.1521 3.1507 0.1521 3.1507
pair_coeff 5 6 0.0836 1.7753 0.0836 1.7753
pair_coeff 6 6 0.046 0.4 0.046 0.4

# bond_style harmonic
bond_coeff 1 450 0.9572

# angle_style charmm
angle_coeff 1 55 104.52 0 3

# dihedral_style charmmfsw

# improper_style harmonic

