# NaCl Madelung sum (Na+ Cl-)

# 1 - init general

units           cgs
atom_style      charge

# 2 - init system

boundary        p p p
variable        a0 equal 5
# This is a simple cubic lattice...
lattice         custom ${a0} a1 1 0 0 a2 0 1 0 a3 0 0 1 basis 0 0 0 basis 0.5 0 0 basis 0 0.5 0 basis 0 0 0.5 basis 0.5 0.5 0 basis 0.5 0 0.5 basis 0 0.5 0.5 basis 0.5 0.5 0.5
region          box block 0 2 0 2 0 2 
create_box      2 box
# ...with NaCl structure
create_atoms    1 box basis 1 1 basis 2 2 basis 3 2 basis 4 2 basis 5 1 basis 6 1 basis 7 1 basis 8 2
mass            1 1.0
mass            2 1.0

group           g_Na type 1
group           g_Cl type 2

set             group g_Na charge -0.5
set             group g_Cl charge 0.5

# 3 - init potential

#pair_style      coul/long/bsct 7.0
pair_style      lj/charmmfsw/coul/long/bsct 8.0 12.0 10.0
pair_coeff      * * 0 0
pair_modify     table 0
kspace_style    pppm/bsct 1.0e-4

# 4 - settings

neighbor        1.0 bin
neigh_modify    delay 0 every 1 check yes

fix             1 all deform 1 x final 0 10 y final 0 10 z final 0 10 units box

# BSCT
#fix             ct all addforce 0 0 0
#fix_modify      ct energy yes
fix             ct all bsct  log 3  mode 2  history 10  beta 0.1  prec 0.0000001  max_iter 100  type 1 -1.084 5.0 5.0 2.0  type 2 1.084 5.0 5.0 2.0
fix_modify      ct energy yes

thermo          1
thermo_style    custom step temp epair etotal f_ct elong ecoul epair lx ly lz
thermo_modify   format float %15.14g norm no

dump            1 all custom 1 dump.custom id type x y z q
dump_modify     1 format line "%d %d %f %f %f %15.14e %15.14e"

# 5 - run

run             0
