# LAMMPS coeff file via write_coeff, version 7 Aug 2019
# pair_style lj/charmmfsw/coul/long
pair_coeff 1 1 0.028 2.38761 0.028 2.38761
pair_coeff 1 2 0.025923 2.38761 0.025923 2.38761
pair_coeff 1 3 0.039598 2.98451 0.0167332 2.88651
pair_coeff 1 4 0.0467333 3.01124 0.0167332 2.88651
pair_coeff 1 5 0.052915 2.66379 0.052915 2.66379
pair_coeff 1 6 0.0579655 2.70833 0.0579655 2.70833
pair_coeff 1 7 0.114717 3.06469 0.114717 3.06469
pair_coeff 1 8 0.384864 2.50833 0.384864 2.50833
pair_coeff 1 9 0.0358887 1.39381 0.0358887 1.39381
pair_coeff 1 10 0.0652595 2.76909 0.0652595 2.76909
pair_coeff 1 11 0.0648074 3.21614 0.0648074 3.21614
pair_coeff 1 12 0.0362381 2.40877 0.0362381 2.40877
pair_coeff 2 2 0.024 2.38761 0.024 2.38761
pair_coeff 2 3 0.0366606 2.98451 0.0154919 2.88651
pair_coeff 2 4 0.0432666 3.01124 0.0154919 2.88651
pair_coeff 2 5 0.0489898 2.66379 0.0489898 2.66379
pair_coeff 2 6 0.0536656 2.70833 0.0536656 2.70833
pair_coeff 2 7 0.106207 3.06469 0.106207 3.06469
pair_coeff 2 8 0.356314 2.50833 0.356314 2.50833
pair_coeff 2 9 0.0332265 1.39381 0.0332265 1.39381
pair_coeff 2 10 0.0604185 2.76909 0.0604185 2.76909
pair_coeff 2 11 0.06 3.21614 0.06 3.21614
pair_coeff 2 12 0.03355 2.40877 0.03355 2.40877
pair_coeff 3 3 0.056 3.58141 0.01 3.38542
pair_coeff 3 4 0.0660908 3.60814 0.01 3.38542
pair_coeff 3 5 0.0748331 3.26069 0.0316228 3.16269
pair_coeff 3 6 0.0819756 3.30523 0.034641 3.20724
pair_coeff 3 7 0.162234 3.66159 0.0685565 3.56359
pair_coeff 3 8 0.544279 3.10523 0.23 3.00723
pair_coeff 3 9 0.0507543 1.99071 0.0214476 1.89271
pair_coeff 3 10 0.0922908 3.36599 0.039 3.26799
pair_coeff 3 11 0.0916515 3.81305 0.0387298 3.71505
pair_coeff 3 12 0.0512484 3.00567 0.0216564 2.90767
pair_coeff 4 4 0.078 3.63487 0.01 3.38542
pair_coeff 4 5 0.0883176 3.28742 0.0316228 3.16269
pair_coeff 4 6 0.0967471 3.33196 0.034641 3.20724
pair_coeff 4 7 0.191468 3.68832 0.0685565 3.56359
pair_coeff 4 8 0.642355 3.13195 0.23 3.00723
pair_coeff 4 9 0.0598999 2.01744 0.0214476 1.89271
pair_coeff 4 10 0.108921 3.39272 0.039 3.26799
pair_coeff 4 11 0.108167 3.83977 0.0387298 3.71505
pair_coeff 4 12 0.0604831 3.0324 0.0216564 2.90767
pair_coeff 5 5 0.1 2.93997 0.1 2.93997
pair_coeff 5 6 0.109545 2.98451 0.109545 2.98451
pair_coeff 5 7 0.216795 3.34087 0.216795 3.34087
pair_coeff 5 8 0.727324 2.7845 0.727324 2.7845
pair_coeff 5 9 0.0678233 1.66999 0.0678233 1.66999
pair_coeff 5 10 0.123329 3.04527 0.123329 3.04527
pair_coeff 5 11 0.122474 3.49232 0.122474 3.49232
pair_coeff 5 12 0.0684836 2.68495 0.0684836 2.68495
pair_coeff 6 6 0.12 3.02906 0.12 3.02906
pair_coeff 6 7 0.237487 3.38542 0.237487 3.38542
pair_coeff 6 8 0.796743 2.82905 0.796743 2.82905
pair_coeff 6 9 0.0742967 1.71453 0.0742967 1.71453
pair_coeff 6 10 0.1351 3.08981 0.1351 3.08981
pair_coeff 6 11 0.134164 3.53687 0.134164 3.53687
pair_coeff 6 12 0.07502 2.72949 0.07502 2.72949
pair_coeff 7 7 0.47 3.74177 0.47 3.74177
pair_coeff 7 8 1.5768 3.18541 1.5768 3.18541
pair_coeff 7 9 0.147037 2.07089 0.147037 2.07089
pair_coeff 7 10 0.267371 3.44617 0.267371 3.44617
pair_coeff 7 11 0.265518 3.89323 0.265518 3.89323
pair_coeff 7 12 0.148469 3.08585 0.148469 3.08585
pair_coeff 8 8 5.29 2.62904 5.29 2.62904
pair_coeff 8 9 0.493295 1.51453 0.493295 1.51453
pair_coeff 8 10 0.897 2.88981 0.897 2.88981
pair_coeff 8 11 0.890786 3.33686 0.890786 3.33686
pair_coeff 8 12 0.498097 2.52948 0.498097 2.52948
pair_coeff 9 9 0.046 0.400014 0.046 0.400014
pair_coeff 9 10 0.0836457 1.77529 0.0836457 1.77529
pair_coeff 9 11 0.0830662 2.22235 0.0830662 2.22235
pair_coeff 9 12 0.0464478 1.41497 0.0464478 1.41497
pair_coeff 10 10 0.1521 3.15057 0.1521 3.15057
pair_coeff 10 11 0.151046 3.59763 0.151046 3.59763
pair_coeff 10 12 0.08446 2.79025 0.08446 2.79025
pair_coeff 11 11 0.15 4.04468 0.15 4.04468
pair_coeff 11 12 0.0838749 3.2373 0.0838749 3.2373
pair_coeff 12 12 0.0469 2.42993 0.0469 2.42993
